200
200
140
140
139
139
138
138
138
138
137
137
135
135
133
133
132
132
131
130
130
129
129
129
128
127
126
126
126
125
123
123
123
123
123
122
122
122
121
121
121
121
119
118
118
117
116
115
114
113
113
113
112
112
110
110
110
110
107
105
103
102
102
102
101
101
101
101
100
100
100
98
98
98
97
97
97
95
94
94
94
94
94
93
92
92
91
91
90
89
88
88
88
87
86
86
86
85
85
84
84
84
84
83
83
83
82
82
82
82
82
81
81
80
80
78
77
76
76
76
75
74
74
74
73
73
71
71
71
70
70
70
69
69
69
68
68
67
67
66
66
66
66
65
65
64
64
64
64
64
63
62
62
62
62
61
61
61
61
59
59
59
58
58
58
57
57
57
56
56
56
55
55
55
55
54
54
54
54
54
53
52
50
49
49
47
47
47
46
46
45
44
44
44
43
43
42
42
41
41
41
40
